/*********************************************
 * OPL 12.9.0.0 Data
 * Author: iefcyang
 * Creation Date: Mar 30, 2023 at 9:33:22 AM
 *********************************************/

 
numberOfJobs = 5;
setupTime = [[1,2,3,4,5],[5,4,3,4,2],[2,3,1,5,6],[2,3,1,4,5],[5,6,2,1,2]];
 